339,295
441,406
611,503
453,480
491,596
745,605
923,582
893,618
654,491
593,420
713,199
1166,249
602,-97
382,-6
415,448
463,564
399,794
470,697
452,91
515,-107
227,175
558,237
533,258
782,93
945,42
575,300
532,700
875,547
667,318
1184,327
